# Solution for model GasLib-40
# Objective value = 3.8493003396395515e+01
loadshed[innode_1] 0
loadshed[innode_2] 0
loadshed[innode_3] 0
loadshed[innode_4] 0
loadshed[innode_5] 0
loadshed[innode_6] 0
loadshed[innode_7] 0
loadshed[innode_8] 0
loadshed[source_1] -2.3213424924218362e-01
loadshed[source_2] 1.5029858614810521e-01
loadshed[source_3] 3.2532314339619361e-01
loadshed[sink_1] 0
loadshed[sink_2] 0
loadshed[sink_3] 0
loadshed[sink_4] 0
loadshed[sink_5] 0
loadshed[sink_6] 0
loadshed[sink_7] 0
loadshed[sink_8] 0
loadshed[sink_9] 0
loadshed[sink_10] 0
loadshed[sink_11] 0
loadshed[sink_12] 1
loadshed[sink_13] 0
loadshed[sink_14] 0
loadshed[sink_15] 0
loadshed[sink_16] 0
loadshed[sink_17] 0
loadshed[sink_18] 0
loadshed[sink_19] 0
loadshed[sink_20] 0
loadshed[sink_21] 1
loadshed[sink_22] 0
loadshed[sink_23] 0
loadshed[sink_24] 3.5371230958851541e-01
loadshed[sink_25] 0
loadshed[sink_26] 0
loadshed[sink_27] 0
loadshed[sink_28] 0
loadshed[sink_29] 0
flow[source_1,sink_3] 1.9478844572221050e+02
flow[innode_1,sink_16] 1.6354166666666970e+01
flow[innode_6,sink_13] 7.8193149959331212e+00
flow[sink_13,sink_14] -8.5348516707335467e+00
flow[sink_14,sink_10] -2.4889018337400557e+01
flow[sink_25,sink_26] 1.3001939339665509e+02
flow[sink_26,sink_9] 3.2708333333334551e+01
flow[sink_9,sink_18] 1.6354166666667879e+01
flow[sink_26,sink_4] 8.0956893396653882e+01
flow[sink_4,sink_20] -1.5557202270531404e+01
flow[sink_18,sink_6] 0
flow[sink_25,innode_8] -1.6208011238887414e+02
flow[sink_6,sink_7] -4.9062500000000313e+01
flow[sink_6,sink_22] 3.2708333333333641e+01
flow[sink_7,sink_24] 1.0569496603604486e+01
flow[sink_22,sink_1] 1.6354166666666970e+01
flow[sink_24,sink_21] 0
flow[sink_21,sink_12] 0
flow[sink_7,sink_5] -7.5986163270271462e+01
flow[sink_5,sink_17] -9.2340329936938133e+01
flow[sink_17,sink_4] -8.0159929000518616e+01
flow[sink_17,sink_8] -2.8534567603086163e+01
flow[sink_3,sink_23] 16.3541666666697
flow[sink_8,sink_20] -4.4888734269752831e+01
flow[sink_25,sink_20] 76.8001032069509
flow[sink_25,sink_15] -6.8912865877331413e+01
flow[sink_15,sink_29] -1.0162119921068233e+02
flow[sink_29,sink_28] 1.6354166666667879e+01
flow[sink_29,sink_2] 0
flow[sink_2,sink_15] -1.6354166666684250e+01
flow[sink_29,innode_7] -1.3432953254401656e+02
flow[innode_4,sink_19] 4.0825508769074617e+01
flow[sink_19,innode_3] 7.3951518337400472e+01
flow[innode_4,innode_5] 6.5834342901659085e+01
flow[sink_27,innode_5] -6.5834342901659085e+01
flow[sink_27,sink_19] 4.9480176234992413e+01
flow[sink_10,sink_11] 3.2708333333333641e+01
flow[sink_10,innode_2] 0
flow[sink_10,innode_3] -7.3951518337400472e+01
flow[innode_6,sink_25] -7.8193149959331212e+00
flow[sink_11,innode_1] 1.6354166666666970e+01
flow[sink_19,innode_2] 0
flow[source_3,innode_4] 1.0665985167073370e+02
flow[source_2,innode_7] 1.3432953254401656e+02
flow[sink_3,innode_8] 1.6208011238887414e+02
pressure[innode_1] 7.5106662501870289e+01
pressure[innode_2] 7.9359304615775557e+01
pressure[innode_3] 7.9195547352518389e+01
pressure[innode_4] 81.01325
pressure[innode_5] 8.0967965667496586e+01
pressure[innode_6] 7.4108980922700582e+01
pressure[innode_7] 81.01325
pressure[innode_8] 8.0362146637834044e+01
pressure[source_1] 81.01325
pressure[source_2] 81.01325
pressure[source_3] 81.01325
pressure[sink_1] 1.0339947277735606e+01
pressure[sink_2] 74.3898827226404
pressure[sink_3] 8.0362146637834044e+01
pressure[sink_4] 5.4658722449685214e+01
pressure[sink_5] 4.4716587157254487e+01
pressure[sink_6] 1.2441024888122980e+01
pressure[sink_7] 1.3114536065823110e+01
pressure[sink_8] 5.2671957649128977e+01
pressure[sink_9] 6.2994113234044889e+01
pressure[sink_10] 7.5258363809473835e+01
pressure[sink_11] 7.5106662501870289e+01
pressure[sink_12] 1.01325
pressure[sink_13] 7.4065874345856926e+01
pressure[sink_14] 7.4081148189930317e+01
pressure[sink_15] 7.4443275472406839e+01
pressure[sink_16] 7.4085012667052609e+01
pressure[sink_17] 5.1595274282480808e+01
pressure[sink_18] 6.2402370740245182e+01
pressure[sink_19] 7.9359304615775557e+01
pressure[sink_20] 5.5800071145294005e+01
pressure[sink_21] 1.01325
pressure[sink_22] 1.1403716420090616e+01
pressure[sink_23] 8.0197428626174258e+01
pressure[sink_24] 1.01325
pressure[sink_25] 7.4108980922700582e+01
pressure[sink_26] 64.9517914019295
pressure[sink_27] 8.0421662270198325e+01
pressure[sink_28] 7.7125178966169528e+01
pressure[sink_29] 77.4204612397867
interdiction[source_1,sink_3] 0
interdiction[innode_1,sink_16] 0
interdiction[innode_6,sink_13] 0
interdiction[sink_13,sink_14] 0
interdiction[sink_14,sink_10] 0
interdiction[sink_25,sink_26] 0
interdiction[sink_26,sink_9] 0
interdiction[sink_9,sink_18] 0
interdiction[sink_26,sink_4] 0
interdiction[sink_4,sink_20] 0
interdiction[sink_18,sink_6] 1
interdiction[sink_25,innode_8] 0
interdiction[sink_6,sink_7] 0
interdiction[sink_6,sink_22] 0
interdiction[sink_7,sink_24] 0
interdiction[sink_22,sink_1] 0
interdiction[sink_24,sink_21] 0
interdiction[sink_21,sink_12] 0
interdiction[sink_7,sink_5] 0
interdiction[sink_5,sink_17] 0
interdiction[sink_17,sink_4] 0
interdiction[sink_17,sink_8] 0
interdiction[sink_3,sink_23] 0
interdiction[sink_8,sink_20] 0
interdiction[sink_25,sink_20] 0
interdiction[sink_25,sink_15] 0
interdiction[sink_15,sink_29] 0
interdiction[sink_29,sink_28] 0
interdiction[sink_29,sink_2] 1
interdiction[sink_2,sink_15] 0
interdiction[sink_29,innode_7] 0
interdiction[innode_4,sink_19] 0
interdiction[sink_19,innode_3] 0
interdiction[innode_4,innode_5] 0
interdiction[sink_27,innode_5] 0
interdiction[sink_27,sink_19] 0
interdiction[sink_10,sink_11] 0
interdiction[sink_10,innode_2] 1
interdiction[sink_10,innode_3] 0
interdiction[innode_6,sink_25] 0
interdiction[sink_11,innode_1] 0
interdiction[sink_19,innode_2] 0
interdiction[source_3,innode_4] 0
interdiction[source_2,innode_7] 0
interdiction[sink_3,innode_8] 0
WCcheckFlow[source_1,sink_3] 39
WCcheckFlow[innode_1,sink_16] 1
WCcheckFlow[innode_6,sink_13] 13
WCcheckFlow[sink_13,sink_14] 12
WCcheckFlow[sink_14,sink_10] 11
WCcheckFlow[sink_25,sink_26] 15
WCcheckFlow[sink_26,sink_9] 2
WCcheckFlow[sink_9,sink_18] 1
WCcheckFlow[sink_26,sink_4] 12
WCcheckFlow[sink_4,sink_20] 1
WCcheckFlow[sink_18,sink_6] 0
WCcheckFlow[sink_25,innode_8] -36
WCcheckFlow[sink_6,sink_7] -3
WCcheckFlow[sink_6,sink_22] 2
WCcheckFlow[sink_7,sink_24] 3
WCcheckFlow[sink_22,sink_1] 1
WCcheckFlow[sink_24,sink_21] 2
WCcheckFlow[sink_21,sink_12] 1
WCcheckFlow[sink_7,sink_5] -7
WCcheckFlow[sink_5,sink_17] -8
WCcheckFlow[sink_17,sink_4] -10
WCcheckFlow[sink_17,sink_8] 1
WCcheckFlow[sink_3,sink_23] 1
WCcheckFlow[sink_8,sink_20] 0
WCcheckFlow[sink_25,sink_20] 0
WCcheckFlow[sink_25,sink_15] 6
WCcheckFlow[sink_15,sink_29] 4
WCcheckFlow[sink_29,sink_28] 1
WCcheckFlow[sink_29,sink_2] 0
WCcheckFlow[sink_2,sink_15] -1
WCcheckFlow[sink_29,innode_7] 2
WCcheckFlow[innode_4,sink_19] -4
WCcheckFlow[sink_19,innode_3] -6
WCcheckFlow[innode_4,innode_5] 2
WCcheckFlow[sink_27,innode_5] -1
WCcheckFlow[sink_27,sink_19] 0
WCcheckFlow[sink_10,sink_11] 3
WCcheckFlow[sink_10,innode_2] 0
WCcheckFlow[sink_10,innode_3] 7
WCcheckFlow[innode_6,sink_25] -14
WCcheckFlow[sink_11,innode_1] 2
WCcheckFlow[sink_19,innode_2] 1
WCcheckFlow[source_3,innode_4] -1
WCcheckFlow[source_2,innode_7] -1
WCcheckFlow[sink_3,innode_8] 37
